;; unsat

(declare-const x1 sl.list.loc)
(declare-const x2 sl.list.loc)
(declare-const x3 sl.list.loc)
(declare-const x4 sl.list.loc)
(declare-const x5 sl.list.loc)
(declare-const x6 sl.list.loc)
(declare-const x7 sl.list.loc)
(declare-const x8 sl.list.loc)
(declare-const x9 sl.list.loc)
(declare-const x10 sl.list.loc)
(declare-const x11 sl.list.loc)
(declare-const x12 sl.list.loc)
(declare-const x13 sl.list.loc)
(declare-const x14 sl.list.loc)
(declare-const x15 sl.list.loc)

(assert (and (sl.sepcon (sl.list.eq sl.list.null sl.list.null)
 (sl.sepcon (sl.sepcon (sl.sepcon (sl.sepcon (sl.sepcon (sl.sepcon (sl.sepcon (sl.sepcon (sl.sepcon (sl.sepcon (sl.sepcon (sl.sepcon (sl.sepcon (sl.sepcon (sl.list.next x13 x3)
 (sl.list.seg x14 x2)
)
 (sl.list.seg x11 x12)
)
 (sl.list.next x4 x12)
)
 (sl.list.next x10 x15)
)
 (sl.list.next x2 x1)
)
 (sl.list.next x8 x2)
)
 (sl.list.next x6 x8)
)
 (sl.list.next x12 x6)
)
 (sl.list.next x3 x4)
)
 (sl.list.seg x7 x11)
)
 (sl.list.seg x15 x2)
)
 (sl.list.next x5 x7)
)
 (sl.list.next x1 x6)
)
 (sl.list.next x9 x11)
)
)
 (not (sl.sepcon (sl.sepcon (sl.sepcon (sl.sepcon (sl.sepcon (sl.sepcon (sl.list.seg x14 x2)
 (sl.list.seg x13 x3)
)
 (sl.list.seg x9 x11)
)
 (sl.list.seg x10 x1)
)
 (sl.list.seg x5 x12)
)
 (sl.list.seg x3 x6)
)
 (sl.list.seg x1 x2)
)
))
)

